
<<< setup


<<< generate

 ! --------------------------------------------------- CP Optimizer 22.1.1.0 --
 ! Satisfiability problem - 60 variables, 496 constraints
 ! Presolve      : 141 extractables eliminated, 47 constraints generated
 ! ParallelMode         = 1
 ! Workers              = 8
 ! Initial process time : 0.02s (0.02s extraction + 0.00s propagation)
 !  . Log search space  : 120.0 (before), 120.0 (after)
 !  . Memory usage      : 662.8 kB (before), 662.8 kB (after)
 ! Using parallel search with 8 workers.
 ! ----------------------------------------------------------------------------
 !               Branches  Non-fixed    W       Branch decision
 *                    452  0.04s        8         0  = x(1)(60)
 ! ----------------------------------------------------------------------------
 ! Search completed, 1 solution found.
 ! ----------------------------------------------------------------------------
 ! Number of branches     : 9357
 ! Number of fails        : 4231
 ! Total memory usage     : 12.5 MB (12.1 MB CP Optimizer + 0.4 MB Concert)
 ! Time spent in solve    : 0.05s (0.03s engine + 0.02s extraction)
 ! Search speed (br. / s) : 311900.0
 ! ----------------------------------------------------------------------------

<<< solve



OBJECTIVE: no objective
===== Nurse Rostering Schedule =====
Shifts: D=Day, E=Evening, N=Night, O=Off

Nurse 1: D D D D E E O D E E O N O O D D E D E D O D E E O N O O D E D E E E O D N D O E O O D E D D E E O D N D O E O O D E D D 

<<< post process


<<< done

